(set-logic ALL)
(declare-fun var0 () String)
(assert (str.in_re var0 (re.++ (re.+ (re.union (str.to_re "00") (str.to_re "1"))) (re.++ (re.+ (re.* (str.to_re "222"))) (re.++ (re.+ (re.+ (str.to_re "33"))) (re.++ (re.* (re.* (str.to_re "44"))) (re.++ (re.+ (re.* (str.to_re "55"))) (re.++ (re.union (re.+ (str.to_re "666")) (re.+ (str.to_re "777"))) (re.++ (re.* (re.+ (str.to_re "888"))) (re.++ (re.* (re.+ (str.to_re "999"))) (re.++ (re.+ (re.* (str.to_re "a"))) (re.++ (re.union (re.* (str.to_re "bbb")) (re.* (str.to_re "cc"))) (re.++ (re.+ (re.* (str.to_re "d"))) (re.++ (re.* (re.+ (str.to_re "e"))) (re.++ (re.* (re.+ (str.to_re "fff"))) (re.++ (re.+ (re.* (str.to_re "ggg"))) (re.++ (re.+ (re.+ (str.to_re "hhh"))) (re.++ (re.* (re.* (str.to_re "iii"))) (re.++ (re.union (re.union (str.to_re "jjj") (str.to_re "kkk")) (re.union (str.to_re "ll") (str.to_re "mm"))) (re.++ (re.* (re.* (str.to_re "n"))) (re.++ (re.+ (re.+ (str.to_re "o"))) (re.++ (re.union (re.+ (str.to_re "p")) (re.+ (str.to_re "qqq"))) (re.++ (re.* (re.union (str.to_re "rrr") (str.to_re "s"))) (re.++ (re.union (re.* (str.to_re "t")) (re.* (str.to_re "uu"))) (re.++ (re.+ (re.* (str.to_re "vvv"))) (re.++ (re.* (re.+ (str.to_re "www"))) (re.++ (re.union (re.union (str.to_re "xx") (str.to_re "yy")) (re.union (str.to_re "zzz") (str.to_re "A"))) (re.++ (re.* (re.union (str.to_re "B") (str.to_re "CCC"))) (re.++ (re.+ (re.union (str.to_re "D") (str.to_re "EE"))) (re.++ (re.+ (re.union (str.to_re "F") (str.to_re "GGG"))) (re.++ (re.union (re.+ (str.to_re "H")) (re.+ (str.to_re "II"))) (re.++ (re.+ (re.+ (str.to_re "J"))) (re.++ (re.union (re.union (str.to_re "KKK") (str.to_re "LL")) (re.union (str.to_re "MMM") (str.to_re "NNN"))) (re.++ (re.+ (re.* (str.to_re "OOO"))) (re.++ (re.* (re.union (str.to_re "PP") (str.to_re "QQQ"))) (re.++ (re.union (re.* (str.to_re "R")) (re.* (str.to_re "SS"))) (re.++ (re.* (re.+ (str.to_re "TT"))) (re.++ (re.* (re.* (str.to_re "U"))) (re.++ (re.union (re.* (str.to_re "VVV")) (re.* (str.to_re "WW"))) (re.++ (re.* (re.union (str.to_re "XXX") (str.to_re "YY"))) (re.++ (re.+ (re.union (str.to_re "ZZ") (str.to_re "!!"))) (re.++ (re.+ (re.* (str.to_re """"""))) (re.++ (re.+ (re.* (str.to_re "###"))) (re.++ (re.union (re.+ (str.to_re "$$$")) (re.+ (str.to_re "%%%"))) (re.++ (re.+ (re.+ (str.to_re "&"))) (re.++ (re.* (re.+ (str.to_re "''"))) (re.++ (re.union (re.+ (str.to_re "(")) (re.+ (str.to_re ")"))) (re.++ (re.+ (re.+ (str.to_re "***"))) (re.++ (re.union (re.* (str.to_re "+")) (re.* (str.to_re ",,,"))) (re.++ (re.+ (re.union (str.to_re "-") (str.to_re ".."))) (re.++ (re.union (re.union (str.to_re "/") (str.to_re "::")) (re.union (str.to_re ";;;") (str.to_re "<"))) (re.++ (re.* (re.union (str.to_re "=") (str.to_re ">>"))) (re.++ (re.* (re.+ (str.to_re "?"))) (re.++ (re.+ (re.* (str.to_re "@@@"))) (re.++ (re.+ (re.union (str.to_re "[") (str.to_re "\\\\\\"))) (re.++ (re.* (re.+ (str.to_re "]]]"))) (re.++ (re.* (re.union (str.to_re "^") (str.to_re "_"))) (re.++ (re.union (re.union (str.to_re "`") (str.to_re "{{{")) (re.union (str.to_re "||") (str.to_re "}}}"))) (re.++ (re.union (re.+ (str.to_re "~~")) (re.+ (str.to_re "0"))) (re.++ (re.* (re.* (str.to_re "1"))) (re.++ (re.+ (re.union (str.to_re "222") (str.to_re "33"))) (re.++ (re.* (re.union (str.to_re "4") (str.to_re "555"))) (re.++ (re.union (re.union (str.to_re "666") (str.to_re "7")) (re.union (str.to_re "8") (str.to_re "999"))) (re.++ (re.+ (re.* (str.to_re "aaa"))) (re.++ (re.+ (re.union (str.to_re "bb") (str.to_re "c"))) (re.++ (re.+ (re.+ (str.to_re "dd"))) (re.++ (re.union (re.* (str.to_re "eee")) (re.* (str.to_re "f"))) (re.++ (re.union (re.* (str.to_re "gg")) (re.* (str.to_re "hhh"))) (re.++ (re.union (re.+ (str.to_re "iii")) (re.+ (str.to_re "jj"))) (re.++ (re.union (re.+ (str.to_re "kkk")) (re.+ (str.to_re "l"))) (re.++ (re.+ (re.union (str.to_re "mmm") (str.to_re "n"))) (re.++ (re.union (re.+ (str.to_re "ooo")) (re.+ (str.to_re "ppp"))) (re.++ (re.+ (re.union (str.to_re "q") (str.to_re "r"))) (re.++ (re.union (re.union (str.to_re "s") (str.to_re "ttt")) (re.union (str.to_re "u") (str.to_re "vv"))) (re.++ (re.+ (re.+ (str.to_re "ww"))) (re.++ (re.+ (re.+ (str.to_re "xx"))) (re.++ (re.union (re.* (str.to_re "yyy")) (re.* (str.to_re "z"))) (re.++ (re.* (re.+ (str.to_re "AA"))) (re.++ (re.+ (re.+ (str.to_re "BBB"))) (re.++ (re.union (re.* (str.to_re "C")) (re.* (str.to_re "DDD"))) (re.++ (re.+ (re.+ (str.to_re "EEE"))) (re.++ (re.+ (re.* (str.to_re "FFF"))) (re.++ (re.union (re.* (str.to_re "GGG")) (re.* (str.to_re "HHH"))) (re.++ (re.+ (re.* (str.to_re "III"))) (re.++ (re.union (re.* (str.to_re "J")) (re.* (str.to_re "K"))) (re.++ (re.* (re.union (str.to_re "LLL") (str.to_re "MMM"))) (re.++ (re.* (re.+ (str.to_re "NN"))) (re.++ (re.union (re.union (str.to_re "O") (str.to_re "P")) (re.union (str.to_re "QQQ") (str.to_re "RR"))) (re.++ (re.+ (re.+ (str.to_re "S"))) (re.++ (re.* (re.union (str.to_re "T") (str.to_re "U"))) (re.++ (re.union (re.* (str.to_re "VV")) (re.* (str.to_re "WWW"))) (re.++ (re.union (re.* (str.to_re "XXX")) (re.* (str.to_re "Y"))) (re.++ (re.* (re.union (str.to_re "Z") (str.to_re "!!!"))) (re.++ (re.union (re.+ (str.to_re """""""")) (re.+ (str.to_re "##"))) (re.++ (re.+ (re.* (str.to_re "$"))) (re.++ (re.* (re.union (str.to_re "%%") (str.to_re "&"))) (re.++ (re.+ (re.+ (str.to_re "''"))) (re.++ (re.union (re.union (str.to_re "(") (str.to_re ")))")) (re.union (str.to_re "*") (str.to_re "+"))) (re.++ (re.+ (re.union (str.to_re ",,,") (str.to_re "-"))) (re.++ (re.+ (re.+ (str.to_re "..."))) (re.++ (re.* (re.union (str.to_re "/") (str.to_re ":::"))) (re.++ (re.* (re.* (str.to_re ";;;"))) (re.++ (re.* (re.* (str.to_re "<"))) (re.++ (re.* (re.union (str.to_re "==") (str.to_re ">"))) (re.++ (re.union (re.+ (str.to_re "??")) (re.+ (str.to_re "@"))) (re.++ (re.* (re.* (str.to_re "[[["))) (re.++ (re.union (re.+ (str.to_re "\\\\\\")) (re.+ (str.to_re "]]"))) (re.++ (re.* (re.* (str.to_re "^"))) (re.++ (re.union (re.* (str.to_re "_")) (re.* (str.to_re "```"))) (re.++ (re.union (re.+ (str.to_re "{{{")) (re.+ (str.to_re "|"))) (re.++ (re.* (re.union (str.to_re "}") (str.to_re "~~~"))) (re.++ (re.* (re.+ (str.to_re "0"))) (re.++ (re.* (re.* (str.to_re "11"))) (re.++ (re.+ (re.union (str.to_re "22") (str.to_re "333"))) (re.++ (re.union (re.union (str.to_re "44") (str.to_re "555")) (re.union (str.to_re "66") (str.to_re "77"))) (re.++ (re.* (re.+ (str.to_re "888"))) (re.++ (re.+ (re.* (str.to_re "999"))) (re.++ (re.* (re.* (str.to_re "aa"))) (re.++ (re.+ (re.* (str.to_re "b"))) (re.++ (re.* (re.+ (str.to_re "ccc"))) (re.++ (re.union (re.union (str.to_re "d") (str.to_re "ee")) (re.union (str.to_re "fff") (str.to_re "gg"))) (re.++ (re.union (re.+ (str.to_re "hhh")) (re.+ (str.to_re "iii"))) (re.++ (re.* (re.union (str.to_re "j") (str.to_re "kkk"))) (re.++ (re.union (re.union (str.to_re "l") (str.to_re "mm")) (re.union (str.to_re "n") (str.to_re "oo"))) (re.++ (re.+ (re.+ (str.to_re "pp"))) (re.++ (re.+ (re.+ (str.to_re "qqq"))) (re.++ (re.* (re.union (str.to_re "rrr") (str.to_re "sss"))) (re.++ (re.* (re.* (str.to_re "tt"))) (re.++ (re.+ (re.* (str.to_re "uu"))) (re.++ (re.union (re.* (str.to_re "vv")) (re.* (str.to_re "ww"))) (re.++ (re.+ (re.union (str.to_re "xx") (str.to_re "yyy"))) (re.++ (re.union (re.union (str.to_re "z") (str.to_re "AA")) (re.union (str.to_re "BB") (str.to_re "CCC"))) (re.++ (re.* (re.union (str.to_re "DD") (str.to_re "EEE"))) (re.++ (re.* (re.union (str.to_re "FFF") (str.to_re "GG"))) (re.++ (re.union (re.+ (str.to_re "HHH")) (re.+ (str.to_re "I"))) (re.++ (re.union (re.+ (str.to_re "J")) (re.+ (str.to_re "KKK"))) (re.++ (re.union (re.* (str.to_re "LLL")) (re.* (str.to_re "MM"))) (re.++ (re.* (re.union (str.to_re "N") (str.to_re "O"))) (re.++ (re.union (re.* (str.to_re "P")) (re.* (str.to_re "QQ"))) (re.++ (re.union (re.* (str.to_re "RR")) (re.* (str.to_re "S"))) (re.++ (re.union (re.union (str.to_re "T") (str.to_re "UUU")) (re.union (str.to_re "V") (str.to_re "W"))) (re.++ (re.+ (re.+ (str.to_re "X"))) (re.++ (re.union (re.+ (str.to_re "YY")) (re.+ (str.to_re "ZZZ"))) (re.++ (re.* (re.union (str.to_re "!!") (str.to_re """"))) (re.++ (re.+ (re.+ (str.to_re "###"))) (re.++ (re.+ (re.+ (str.to_re "$"))) (re.++ (re.* (re.+ (str.to_re "%"))) (re.++ (re.union (re.+ (str.to_re "&&&")) (re.+ (str.to_re "'"))) (re.++ (re.+ (re.* (str.to_re "("))) (re.++ (re.* (re.+ (str.to_re "))"))) (re.++ (re.+ (re.union (str.to_re "**") (str.to_re "+"))) (re.++ (re.union (re.+ (str.to_re ",,,")) (re.+ (str.to_re "---"))) (re.++ (re.+ (re.union (str.to_re ".") (str.to_re "//"))) (re.++ (re.+ (re.union (str.to_re ":") (str.to_re ";;;"))) (re.++ (re.union (re.+ (str.to_re "<<<")) (re.+ (str.to_re "="))) (re.++ (re.* (re.union (str.to_re ">>") (str.to_re "??"))) (re.++ (re.+ (re.* (str.to_re "@"))) (re.++ (re.union (re.* (str.to_re "[")) (re.* (str.to_re "\\\\\\"))) (re.++ (re.union (re.* (str.to_re "]]")) (re.* (str.to_re "^^"))) (re.++ (re.union (re.+ (str.to_re "___")) (re.+ (str.to_re "``"))) (re.++ (re.union (re.+ (str.to_re "{")) (re.+ (str.to_re "|||"))) (re.++ (re.* (re.* (str.to_re "}"))) (re.++ (re.* (re.+ (str.to_re "~~"))) (re.++ (re.+ (re.+ (str.to_re "0"))) (re.++ (re.+ (re.+ (str.to_re "11"))) (re.++ (re.* (re.+ (str.to_re "2"))) (re.++ (re.union (re.+ (str.to_re "33")) (re.+ (str.to_re "4"))) (re.++ (re.+ (re.union (str.to_re "555") (str.to_re "6"))) (re.++ (re.+ (re.* (str.to_re "7"))) (re.++ (re.+ (re.+ (str.to_re "888"))) (re.++ (re.* (re.+ (str.to_re "99"))) (re.++ (re.union (re.union (str.to_re "a") (str.to_re "bb")) (re.union (str.to_re "ccc") (str.to_re "d"))) (re.++ (re.* (re.union (str.to_re "eee") (str.to_re "ff"))) (re.++ (re.* (re.union (str.to_re "g") (str.to_re "h"))) (re.++ (re.union (re.* (str.to_re "i")) (re.* (str.to_re "j"))) (re.++ (re.+ (re.+ (str.to_re "kkk"))) (re.++ (re.union (re.+ (str.to_re "l")) (re.+ (str.to_re "m"))) (re.++ (re.union (re.union (str.to_re "n") (str.to_re "ooo")) (re.union (str.to_re "pp") (str.to_re "qqq"))) (re.++ (re.* (re.* (str.to_re "rr"))) (re.++ (re.* (re.+ (str.to_re "ss"))) (re.++ (re.* (re.union (str.to_re "tt") (str.to_re "uuu"))) (re.++ (re.+ (re.+ (str.to_re "vv"))) (re.++ (re.* (re.union (str.to_re "www") (str.to_re "xxx"))) (re.++ (re.* (re.+ (str.to_re "y"))) (re.++ (re.+ (re.union (str.to_re "zz") (str.to_re "A"))) (re.++ (re.union (re.* (str.to_re "B")) (re.* (str.to_re "C"))) (re.++ (re.union (re.+ (str.to_re "DDD")) (re.+ (str.to_re "EEE"))) (re.++ (re.union (re.union (str.to_re "FFF") (str.to_re "GG")) (re.union (str.to_re "H") (str.to_re "II"))) (re.++ (re.* (re.* (str.to_re "JJ"))) (re.++ (re.union (re.+ (str.to_re "KKK")) (re.+ (str.to_re "L"))) (re.++ (re.* (re.union (str.to_re "MM") (str.to_re "NNN"))) (re.+ (re.union (str.to_re "OOO") (str.to_re "PP"))))))))))))))))))))))))))))))))))))))))))))))))))))))))))))))))))))))))))))))))))))))))))))))))))))))))))))))))))))))))))))))))))))))))))))))))))))))))))))))))))))))))))))))))))))))))))))))))))
(check-sat)